51 58 59 0 0 0 0
32 58 50 0 58 0 0
37 58 50 51 0 0 0
57 32 40 0 58 50 1
57 31 40 51 0 50 1
30 32 40 0 116 0 0
33 32 40 30 116 0 0
51 58 30 0 0 59 0
51 58 31 63 58 0 0
31 31 40 0 116 40 0
32 31 40 0 148 0 0
36 58 35 63 116 0 0
33 58 35 63 116 35 0
31 59 44 63 116 70 0
32 30 46 0 147 40 0
35 30 46 63 58 31 0
53 31 34 32 58 0 1
31 31 34 88 0 0 0
31 32 34 32 148 0 0
36 31 34 32 58 34 1
5 30 0 0 71 0
32 36 58 40 133 58 0
33 30 58 55 55 58 0
31 33 58 55 88 0 0
 54 38 85 92 0 0
31 45 38 85 92 38 0
40 30 30 40 40 68 1
40 31 30 0 120 81 0
 0
31 31 37 0 0 47 0
31 31 31 0 0 84 0
31 32 30 81 132 65 1
41 31 30 45 41 88 1
